0 0
1 0
2 0
3 0
4 3
5 1
6 1
7 1
8 1
9 1
10 1
11 1
12 1
13 1
14 1
15 1
16 1
17 1
18 1
19 1
20 1
21 1
22 1
23 1
24 1
25 1
26 2
27 0
28 2
29 2
30 2
31 2
32 2
33 2
34 2
35 2
36 2
37 0
38 3
39 3
40 3
41 2
42 3
43 3
44 3
45 3
46 3
47 1
48 2
49 3
50 3
51 3
52 3
53 3
54 3
55 3
56 3
57 3
58 4
59 4
60 4
61 3
62 4
63 4
64 4
65 4
66 4
67 4
68 4
69 3
70 6
71 5
72 12
73 12
74 12
75 12
76 5
77 5
78 5
79 5
80 5
81 5
82 5
83 5
84 12
85 6
86 6
87 6
88 9
89 6
90 6
91 6
92 6
93 6
94 5
95 5
96 12
97 7
98 7
99 5
100 7
101 7
102 6
103 6
104 7
105 7
106 8
107 8
108 7
109 7
110 7
111 9
112 9
113 9
114 9
115 9
116 9
117 9
118 9
119 6
120 9
121 9
122 9
123 6
124 9
125 9
126 9
127 9
128 9
129 8
130 0
131 9
132 10
133 10
134 11
135 11
136 11
137 10
138 12
